(declare-fun Constructed_Argument_t () String)
(declare-fun CreateAsClass () Bool)
(declare-fun Constructed_Argument () String)
(declare-fun ExpandObjSwitcher () Real)
(declare-fun Constructed_Argument_2_t () String)
(declare-fun Constructed_Argument_2_Array_Length () Int)
(declare-fun CreateAsClass_2 () Bool)
(assert (= Constructed_Argument_t "string"))
(assert CreateAsClass)
(assert (not (= Constructed_Argument "")))
(assert (= ExpandObjSwitcher 0.0))
(assert (= Constructed_Argument_2_t "array_bool"))
(assert (>= Constructed_Argument_2_Array_Length 0))
(assert CreateAsClass_2)
(assert (not (<= (to_real Constructed_Argument_2_Array_Length) 0.0)))
(check-sat)
